Total weight: 1079.0497696138157
Route 1: 0 5 3 7 8 10 11 9 6 4 2 1 75 0 
Route 2: 0 13 17 18 19 15 16 14 12 0 
Route 3: 0 20 21 25 27 29 30 28 26 23 22 0 
Route 4: 0 24 33 35 37 38 39 36 34 32 52 0 
Route 5: 0 46 42 41 40 44 61 64 68 82 83 86 0 
Route 6: 0 43 47 49 31 51 50 45 48 0 
Route 7: 0 55 54 53 56 58 60 59 57 0 
Route 8: 0 67 65 74 62 70 71 81 72 66 69 63 0 
Route 9: 0 78 76 73 77 79 80 84 85 0 
Route 10: 0 91 88 94 92 93 97 100 99 96 95 98 0 
Route 11: 0 89 87 90 0 
